9
0 96 42 97 15 39 59 99 36 
13 0 100 96 61 15 44 46 73 
16 16 0 64 14 27 42 61 4 
46 15 60 0 26 20 61 53 6 
60 97 36 76 0 18 93 76 35 
13 98 71 3 93 0 60 28 30 
32 70 49 82 16 83 0 86 94 
18 69 86 77 37 96 36 0 95 
48 59 88 9 74 7 100 27 0 
